
Gurobi 12.0.2 (win64) logging started Mon Sep 15 14:20:16 2025

Set parameter LogFile to value "C:\Ioana\_uni\honours\slp\algorithm\Main_files\results\paracetamol with updated samples\Task_002_Sample005_irr_gurobi.log"
Gurobi Optimizer version 12.0.2 build v12.0.2rc0 (win64 - Windows 11.0 (26100.2))

CPU model: Intel(R) Core(TM) Ultra 5 125H, instruction set [SSE2|AVX|AVX2]
Thread count: 14 physical cores, 18 logical processors, using up to 18 threads

Non-default parameters:
TimeLimit  2200

Optimize a model with 47236 rows, 34503 columns and 146713 nonzeros
Model fingerprint: 0x4f4ba566
Variable types: 17254 continuous, 17249 integer (17249 binary)
Coefficient statistics:
  Matrix range     [1e-04, 8e+04]
  Objective range  [1e-04, 9e-01]
  Bounds range     [1e+00, 1e+03]
  RHS range        [1e+00, 1e+00]
Found heuristic solution: objective 0.0345153
Presolve removed 41543 rows and 29844 columns
Presolve time: 0.36s
Presolved: 5693 rows, 4659 columns, 17070 nonzeros
Variable types: 2307 continuous, 2352 integer (2352 binary)

Root relaxation: objective 1.303700e-02, 338 iterations, 0.01 seconds (0.01 work units)

    Nodes    |    Current Node    |     Objective Bounds      |     Work
 Expl Unexpl |  Obj  Depth IntInf | Incumbent    BestBd   Gap | It/Node Time

     0     0    0.01304    0    2    0.03452    0.01304  62.2%     -    0s
H    0     0                       0.0169439    0.01304  23.1%     -    0s
     0     0    0.01304    0    2    0.01694    0.01304  23.1%     -    0s

Explored 1 nodes (338 simplex iterations) in 0.41 seconds (0.41 work units)
Thread count was 18 (of 18 available processors)

Solution count 2: 0.0169439 0.0345153 

Optimal solution found (tolerance 1.00e-04)
Best objective 1.694385126705e-02, best bound 1.694385126705e-02, gap 0.0000%
